28383 14649 9788 8655 8253 8501 8137 8331 8031 7933 7933 7933 7933 7933 7933 7933 7933 7933 7933 7933 7933 7933 7933 7933 7933 7933 8031 8007 7989 7933 7989 7933 7952 7989 7989 7989 7989 7989 7989 7989 7989 7989 7989 7989 7989 7989 7989 7989 7989 7989 7989 7989 7989 7989 7989 7989 7989 7989 7989 7989 7989 7989 7989 7989 7989 7989 7989 7989 7989 7989 7989 7989 7989 7989 7989 7989 7989 7989 7989 7989 7989 7989 7989 7989 7989 7989 7989 7989 7989 7989 7989 7989 7989 7989 7989 7989 7989 7989 7989 7989 7989 7989 7989 7989 7989 7989 7989 7989 7989 7989 7989 7989 7989 7989 7989 7989 7989 7989 7989 7989 7989 7989 7989 7989 7989 7989 7989 7989 7989 7989 7989 7989 7989 7989 7989 7989 7989 7989 7989 7989 7989 7989 7989 7989 7989 7989 7989 7989 7989 7989 7989 7989 7989 7989 7989 7989 7989 7989 7989 7989 7989 7989 7989 7989 7989 7989 7989 7989 7989 7989 7989 7989 7989 7989 7989 7989 7989 7989 7989 7989 7989 7989 7989 7989 7989 7989 7989 7989 7989 7989 7989 7989 7989 7989 7989 7989 7989 7989 7989 7989 7989 7989 7989 7989 7989 7989 7989 7989 7989 7989 7989 7989 7989 7989 7989 7989 7989 7989 7989 7989 7989 7989 7989 7989 7989 7989 7989 7989 7989 7989 7989 7989 7989 7989 7989 7989 7989 7989 7989 7989 7989 7989 7989 7989 7989 7989 7989 7989 7989 7989 7989 7989 7989 7989 7989 7989 7989 7989 7989 7989 7989 7989 7989 7989 7989 7989 7989 7989 7989 7989 7989 7989 7989 7989 7989 7989 7989 7989 7989 7989 7989 7989 7989 7989 7989 7989 7989 7989 7989 7989 7989 7989 7989 7989 7989 7989 7989 7989 7989 7989 7989 7989 7989 7989 7989 7989 7989 7989 7989 7989 7989 7989 7989 7989 7989 7989 7989 7989 7989 7989 7989 7989 7989 7989 7989 7989 7989 7989 7989 7989 7989 7989 7989 7989 7989 7989 7989 7989 7989 7989 7989 7989 7989 7989 7989 7989 7989 7989 7952 7989 7989 7989 7989 7989 7989 7989 7989 7989 7989 7989 7989 7989 7989 7989 7989 7989 7989 7989 7989 7989 7989 7989 7989 7989 7989 7989 7989 7989 7989 7989 7989 7989 7989 7989 7989 7989 7989 7989 7989 7989 7989 7989 7989 7989 7989 7989 7989 7989 7989 7989 7989 7989 7989 7989 7989 7989 7989 7989 7989 7989 7989 7989 7989 7989 7989 7989 7989 7989 7989 7989 7989 7989 7989 7989 7989 7989 7989 7989 7989 7989 7989 7989 7989 7989 7989 7989 7989 7989 7989 7989 7989 7989 7989 7989 7989 7989 7989 7989 7989 7989 7989 7989 7989 7989 7989 8058 7989 7989 7989 7989 7989 7989 7989 7989 7989 7989 7989 7989 7989 7989 7989 7989 7989 7989 7989 7989 7989 7989 7989 7989 7989 7989 7989 7989 7989 7989 7989 7989 7989 7989 7989 7989 7989 7989 7989 7989 7989 7989 7989 7989 7989 7989 7989 7989 7989 7989 7989 7989 7989 7989 7989 7989 7989 7989 7989 7989 7989 7989 7989 7989 7989 7989 7989 7989 7989 7989 7989 7989 7989 7989 7989 7989 7989 7989 7989 7989 7989 7989 7989 7989 7989 7989 7989 7989 7989 7989 7989 7989 7989 7989 7989 7989 7989 7989 7989 7989 7989 7989 7989 7989 7989 7989 7989 7989 7989 7989 7989 7989 7989 7989 7989 7989 7989 7989 7989 7989 7989 7989 7989 7989 7989 7989 7989 7989 7989 7989 7989 7989 7989 7989 7989 7989 7989 7989 7989 7989 7989 7989 7989 7989 7989 7989 7989 7989 7989 7989 7989 7989 7989 8058 7989 7989 7989 7989 7989 7989 7989 7989 7989 7989 7989 7989 7989 7989 7989 7989 7989 7989 7989 7989 7989 7989 7952 7989 7989 7989 7989 7989 7989 7989 7989 7989 7989 7952 7989 7989 7989 7989 7989 7989 7989 7989 7989 7989 7989 7989 7989 7989 7989 8058 8058 7989 7989 7989 7989 7989 7989 7989 7989 7989 7989 7989 7989 7989 7989 7989 7989 7989 7989 7989 7989 7989 7989 7989 7989 7989 7989 7989 7989 7989 7989 7989 7989 7989 7989 7989 7989 7989 7989 7989 7989 7989 7989 7989 7989 7989 7989 7989 7989 7989 7989 7989 7989 7989 7989 7989 7989 7989 7989 7989 7989 7989 7989 7989 7989 7989 7989 7989 7989 7989 7989 7989 7989 7989 7989 7989 7989 7989 7989 7989 7989 7989 7989 7989 7989 7989 7989 7989 7989 7989 7989 7989 7989 7989 7989 7989 7989 7989 7989 7989 7989 7989 7989 7989 7989 7989 7989 7989 7989 7989 7989 7952 7989 7989 7989 7989 7989 7989 7989 7989 7989 7989 7989 7989 7989 7989 7989 7989 7989 7989 7989 7989 7989 7989 7989 7989 7989 7989 7989 7989 7989 7989 7989 7989 7989 7989 7989 7989 7989 7989 7989 7989 7989 7989 7989 7989 7989 7989 7989 7989 7989 7989 7989 7989 7989 7989 7989 7989 7989 7989 7989 7989 7989 7989 7989 7989 7989 7989 7989 7989 7989 7989 7989 7989 7989 7989 7989 7989 7989 7989 7989 7989 7989 7989 7989 7989 7989 7989 7989 7989 7989 7989 7989 7989 7989 7989 7989 7989 7989 7989 7952 7989 7989 7989 7989 7989 7989 7989 7989 7989 7989 7989 7989 7989 7989 7989 7989 7989 7989 7989 7989 7989 7989 7989 7989 7989 7989 7989 7989 7989 7989 7989 7989 8058 7989 7989 7989 7989 7989 7989 7989 7989 7989 7989 7989 7989 7989 7989 7989 7989 7989 7989 7989 7989 7989 7989 7989 7989 7989 7989 7989 7989 7989 7989 7989 7989 7989 7989 7989 7989 7989 7989 7989 7989 7989 7989 7989 7989 7989 7989 7989 8058 7989 7989 7989 7989 7989 7989 7989 7989 7989 7989 7989 7989 7989 7989 7989 7989 7989 7989 7989 7989 7989 7989 7989 7989 7989 7989 7989 7989 7989 7989 7989 7989 7989 7989 7989 7989 7989 7989 7989 7989 7989 7989 7989 7989 7989 7989 7989 7989 